25° run output:
{
    "Function": "kroB1000.tsp",
    "Problem dimension": [
        72,
        693,
        390,
        668,
        924,
        230,
        371,
        568,
        990,
        866,
        787,
        937,
        480,
        187,
        481,
        325,
        869,
        310,
        884,
        342,
        295,
        219,
        43,
        529,
        639,
        867,
        652,
        408,
        812,
        659,
        422,
        882,
        228,
        161,
        387,
        448,
        109,
        698,
        789,
        777,
        838,
        409,
        482,
        80,
        845,
        601,
        505,
        729,
        524,
        753,
        148,
        608,
        561,
        989,
        960,
        365,
        374,
        941,
        119,
        540,
        778,
        462,
        145,
        621,
        678,
        355,
        60,
        30,
        699,
        204,
        878,
        335,
        87,
        875,
        348,
        397,
        369,
        208,
        560,
        595,
        722,
        110,
        74,
        942,
        981,
        858,
        817,
        329,
        68,
        449,
        307,
        970,
        439,
        70,
        223,
        150,
        994,
        842,
        547,
        723,
        583,
        967,
        38,
        52,
        392,
        610,
        936,
        954,
        272,
        559,
        378,
        358,
        29,
        780,
        606,
        961,
        210,
        764,
        827,
        40,
        940,
        220,
        406,
        809,
        687,
        965,
        902,
        993,
        414,
        706,
        650,
        196,
        399,
        760,
        738,
        911,
        634,
        432,
        726,
        174,
        846,
        128,
        725,
        555,
        743,
        946,
        398,
        948,
        127,
        2,
        197,
        766,
        562,
        216,
        140,
        525,
        999,
        724,
        792,
        615,
        181,
        82,
        282,
        991,
        479,
        578,
        239,
        64,
        527,
        776,
        32,
        952,
        411,
        311,
        782,
        233,
        419,
        523,
        328,
        260,
        933,
        853,
        589,
        13,
        296,
        83,
        852,
        105,
        270,
        987,
        607,
        541,
        447,
        168,
        581,
        655,
        774,
        551,
        305,
        616,
        149,
        804,
        101,
        813,
        661,
        794,
        584,
        630,
        258,
        486,
        155,
        917,
        5,
        495,
        86,
        112,
        677,
        357,
        153,
        75,
        530,
        739,
        379,
        695,
        563,
        684,
        988,
        614,
        78,
        640,
        510,
        943,
        473,
        921,
        476,
        728,
        916,
        285,
        380,
        775,
        249,
        733,
        874,
        33,
        680,
        111,
        658,
        234,
        186,
        636,
        429,
        528,
        412,
        413,
        985,
        504,
        55,
        195,
        451,
        301,
        703,
        632,
        26,
        820,
        570,
        297,
        24,
        71,
        517,
        951,
        934,
        811,
        178,
        123,
        624,
        344,
        604,
        424,
        115,
        790,
        431,
        190,
        375,
        170,
        304,
        536,
        833,
        315,
        797,
        318,
        671,
        49,
        154,
        393,
        637,
        682,
        256,
        849,
        982,
        251,
        31,
        972,
        843,
        418,
        947,
        67,
        596,
        27,
        281,
        676,
        401,
        229,
        935,
        420,
        286,
        172,
        298,
        459,
        566,
        891,
        890,
        603,
        213,
        612,
        222,
        351,
        184,
        442,
        844,
        626,
        454,
        516,
        79,
        557,
        57,
        879,
        653,
        361,
        673,
        268,
        359,
        531,
        691,
        467,
        353,
        750,
        20,
        340,
        922,
        141,
        452,
        205,
        515,
        468,
        103,
        274,
        974,
        290,
        386,
        488,
        243,
        602,
        332,
        423,
        619,
        337,
        6,
        89,
        754,
        403,
        597,
        317,
        577,
        39,
        714,
        319,
        837,
        291,
        225,
        12,
        674,
        61,
        9,
        177,
        971,
        35,
        997,
        899,
        218,
        85,
        244,
        176,
        945,
        136,
        456,
        152,
        312,
        593,
        407,
        906,
        731,
        647,
        850,
        507,
        643,
        236,
        22,
        381,
        905,
        336,
        388,
        978,
        801,
        872,
        198,
        124,
        309,
        188,
        868,
        37,
        334,
        131,
        795,
        175,
        856,
        499,
        508,
        265,
        192,
        436,
        443,
        430,
        931,
        25,
        564,
        444,
        47,
        550,
        201,
        959,
        324,
        735,
        171,
        146,
        859,
        701,
        819,
        622,
        633,
        415,
        116,
        237,
        586,
        283,
        102,
        897,
        50,
        918,
        573,
        605,
        880,
        42,
        373,
        709,
        861,
        535,
        326,
        320,
        887,
        975,
        253,
        860,
        333,
        886,
        854,
        851,
        818,
        308,
        900,
        752,
        370,
        805,
        199,
        834,
        893,
        824,
        428,
        4,
        556,
        984,
        742,
        0,
        995,
        366,
        672,
        96,
        784,
        121,
        744,
        769,
        331,
        294,
        667,
        19,
        302,
        665,
        98,
        92,
        327,
        737,
        288,
        338,
        546,
        474,
        587,
        235,
        138,
        343,
        91,
        598,
        180,
        575,
        21,
        755,
        928,
        465,
        770,
        463,
        969,
        590,
        426,
        734,
        808,
        498,
        648,
        645,
        912,
        826,
        108,
        848,
        261,
        518,
        46,
        558,
        679,
        389,
        894,
        377,
        453,
        904,
        277,
        823,
        445,
        611,
        913,
        877,
        416,
        574,
        644,
        939,
        132,
        470,
        802,
        642,
        384,
        206,
        500,
        892,
        992,
        807,
        771,
        694,
        185,
        746,
        799,
        927,
        349,
        246,
        279,
        478,
        998,
        768,
        1,
        675,
        554,
        360,
        81,
        707,
        3,
        166,
        113,
        759,
        534,
        592,
        814,
        863,
        159,
        425,
        938,
        252,
        59,
        909,
        690,
        66,
        84,
        830,
        133,
        889,
        796,
        572,
        919,
        464,
        825,
        506,
        896,
        629,
        106,
        772,
        217,
        189,
        522,
        666,
        471,
        117,
        617,
        321,
        163,
        620,
        956,
        702,
        979,
        930,
        269,
        719,
        664,
        745,
        870,
        958,
        705,
        129,
        372,
        582,
        299,
        292,
        466,
        209,
        114,
        158,
        717,
        104,
        257,
        545,
        271,
        511,
        76,
        646,
        487,
        238,
        179,
        45,
        391,
        491,
        118,
        441,
        450,
        520,
        368,
        427,
        751,
        362,
        553,
        543,
        214,
        910,
        539,
        580,
        955,
        404,
        280,
        157,
        923,
        565,
        953,
        460,
        248,
        907,
        490,
        791,
        786,
        761,
        683,
        212,
        97,
        512,
        284,
        346,
        544,
        410,
        841,
        526,
        221,
        901,
        99,
        303,
        363,
        548,
        552,
        278,
        28,
        247,
        692,
        609,
        255,
        944,
        631,
        120,
        721,
        662,
        949,
        762,
        968,
        382,
        203,
        16,
        147,
        925,
        779,
        686,
        976,
        963,
        41,
        839,
        932,
        625,
        23,
        472,
        532,
        915,
        613,
        162,
        267,
        193,
        519,
        996,
        885,
        773,
        433,
        800,
        435,
        538,
        757,
        263,
        670,
        689,
        798,
        509,
        396,
        964,
        549,
        231,
        576,
        748,
        881,
        489,
        929,
        803,
        314,
        14,
        259,
        88,
        871,
        134,
        864,
        635,
        65,
        898,
        446,
        364,
        793,
        720,
        502,
        90,
        895,
        920,
        477,
        579,
        356,
        400,
        711,
        685,
        144,
        94,
        585,
        649,
        273,
        405,
        156,
        58,
        627,
        95,
        143,
        806,
        708,
        383,
        434,
        245,
        785,
        241,
        56,
        18,
        501,
        514,
        275,
        165,
        876,
        567,
        34,
        100,
        323,
        200,
        966,
        322,
        457,
        224,
        962,
        289,
        718,
        232,
        986,
        51,
        250,
        10,
        832,
        151,
        623,
        908,
        957,
        483,
        167,
        503,
        142,
        484,
        54,
        417,
        697,
        628,
        654,
        983,
        385,
        571,
        836,
        781,
        48,
        594,
        713,
        160,
        135,
        810,
        350,
        475,
        352,
        264,
        262,
        763,
        182,
        17,
        857,
        458,
        63,
        202,
        77,
        437,
        469,
        313,
        732,
        660,
        395,
        493,
        730,
        712,
        215,
        883,
        122,
        788,
        73,
        7,
        496,
        663,
        783,
        696,
        107,
        8,
        651,
        316,
        835,
        293,
        669,
        485,
        345,
        862,
        710,
        588,
        53,
        125,
        569,
        758,
        15,
        306,
        421,
        440,
        44,
        736,
        191,
        341,
        497,
        741,
        455,
        173,
        93,
        973,
        164,
        130,
        700,
        727,
        873,
        855,
        914,
        688,
        749,
        521,
        847,
        865,
        169,
        36,
        376,
        126,
        276,
        888,
        537,
        756,
        716,
        62,
        767,
        829,
        591,
        821,
        715,
        211,
        765,
        402,
        11,
        339,
        226,
        367,
        704,
        494,
        240,
        137,
        533,
        394,
        903,
        542,
        207,
        747,
        254,
        287,
        656,
        330,
        681,
        492,
        816,
        977,
        183,
        641,
        828,
        840,
        242,
        600,
        740,
        139,
        438,
        657,
        347,
        815,
        194,
        950,
        822,
        69,
        354,
        266,
        461,
        618,
        980,
        831,
        599,
        638,
        926,
        300,
        513,
        227
    ],
    "Global Optimum": 0,
    "Algorithm": "Genetic algorithm",
    "Parameters": {
        "population": 30,
        "offspring": 30,
        "mutation probability": 0.001,
        "crossover probability": 0.9
    },
    "Fitness": 1307918,
    "Solution": [
        72,
        693,
        390,
        668,
        924,
        230,
        371,
        568,
        990,
        866,
        787,
        937,
        480,
        187,
        481,
        325,
        869,
        310,
        884,
        342,
        295,
        219,
        43,
        529,
        639,
        867,
        652,
        408,
        812,
        659,
        422,
        882,
        228,
        161,
        387,
        448,
        109,
        698,
        789,
        777,
        838,
        409,
        482,
        80,
        845,
        601,
        505,
        729,
        524,
        753,
        148,
        608,
        561,
        989,
        960,
        365,
        374,
        941,
        119,
        540,
        778,
        462,
        145,
        621,
        678,
        355,
        60,
        30,
        699,
        204,
        878,
        335,
        87,
        875,
        348,
        397,
        369,
        208,
        560,
        595,
        722,
        110,
        74,
        942,
        981,
        858,
        817,
        329,
        68,
        449,
        307,
        970,
        439,
        70,
        223,
        150,
        994,
        842,
        547,
        723,
        583,
        967,
        38,
        52,
        392,
        610,
        936,
        954,
        272,
        559,
        378,
        358,
        29,
        780,
        606,
        961,
        210,
        764,
        827,
        40,
        940,
        220,
        406,
        809,
        687,
        965,
        902,
        993,
        414,
        706,
        650,
        196,
        399,
        760,
        738,
        911,
        634,
        432,
        726,
        174,
        846,
        128,
        725,
        555,
        743,
        946,
        398,
        948,
        127,
        2,
        197,
        766,
        562,
        216,
        140,
        525,
        999,
        724,
        792,
        615,
        181,
        82,
        282,
        991,
        479,
        578,
        239,
        64,
        527,
        776,
        32,
        952,
        411,
        311,
        782,
        233,
        419,
        523,
        328,
        260,
        933,
        853,
        589,
        13,
        296,
        83,
        852,
        105,
        270,
        987,
        607,
        541,
        447,
        168,
        581,
        655,
        774,
        551,
        305,
        616,
        149,
        804,
        101,
        813,
        661,
        794,
        584,
        630,
        258,
        486,
        155,
        917,
        5,
        495,
        86,
        112,
        677,
        357,
        153,
        75,
        530,
        739,
        379,
        695,
        563,
        684,
        988,
        614,
        78,
        640,
        510,
        943,
        473,
        921,
        476,
        728,
        916,
        285,
        380,
        775,
        249,
        733,
        874,
        33,
        680,
        111,
        658,
        234,
        186,
        636,
        429,
        528,
        412,
        413,
        985,
        504,
        55,
        195,
        451,
        301,
        703,
        632,
        26,
        820,
        570,
        297,
        24,
        71,
        517,
        951,
        934,
        811,
        178,
        123,
        624,
        344,
        604,
        424,
        115,
        790,
        431,
        190,
        375,
        170,
        304,
        536,
        833,
        315,
        797,
        318,
        671,
        49,
        154,
        393,
        637,
        682,
        256,
        849,
        982,
        251,
        31,
        972,
        843,
        418,
        947,
        67,
        596,
        27,
        281,
        676,
        401,
        229,
        935,
        420,
        286,
        172,
        298,
        459,
        566,
        891,
        890,
        603,
        213,
        612,
        222,
        351,
        184,
        442,
        844,
        626,
        454,
        516,
        79,
        557,
        57,
        879,
        653,
        361,
        673,
        268,
        359,
        531,
        691,
        467,
        353,
        750,
        20,
        340,
        922,
        141,
        452,
        205,
        515,
        468,
        103,
        274,
        974,
        290,
        386,
        488,
        243,
        602,
        332,
        423,
        619,
        337,
        6,
        89,
        754,
        403,
        597,
        317,
        577,
        39,
        714,
        319,
        837,
        291,
        225,
        12,
        674,
        61,
        9,
        177,
        971,
        35,
        997,
        899,
        218,
        85,
        244,
        176,
        945,
        136,
        456,
        152,
        312,
        593,
        407,
        906,
        731,
        647,
        850,
        507,
        643,
        236,
        22,
        381,
        905,
        336,
        388,
        978,
        801,
        872,
        198,
        124,
        309,
        188,
        868,
        37,
        334,
        131,
        795,
        175,
        856,
        499,
        508,
        265,
        192,
        436,
        443,
        430,
        931,
        25,
        564,
        444,
        47,
        550,
        201,
        959,
        324,
        735,
        171,
        146,
        859,
        701,
        819,
        622,
        633,
        415,
        116,
        237,
        586,
        283,
        102,
        897,
        50,
        918,
        573,
        605,
        880,
        42,
        373,
        709,
        861,
        535,
        326,
        320,
        887,
        975,
        253,
        860,
        333,
        886,
        854,
        851,
        818,
        308,
        900,
        752,
        370,
        805,
        199,
        834,
        893,
        824,
        428,
        4,
        556,
        984,
        742,
        0,
        995,
        366,
        672,
        96,
        784,
        121,
        744,
        769,
        331,
        294,
        667,
        19,
        302,
        665,
        98,
        92,
        327,
        737,
        288,
        338,
        546,
        474,
        587,
        235,
        138,
        343,
        91,
        598,
        180,
        575,
        21,
        755,
        928,
        465,
        770,
        463,
        969,
        590,
        426,
        734,
        808,
        498,
        648,
        645,
        912,
        826,
        108,
        848,
        261,
        518,
        46,
        558,
        679,
        389,
        894,
        377,
        453,
        904,
        277,
        823,
        445,
        611,
        913,
        877,
        416,
        574,
        644,
        939,
        132,
        470,
        802,
        642,
        384,
        206,
        500,
        892,
        992,
        807,
        771,
        694,
        185,
        746,
        799,
        927,
        349,
        246,
        279,
        478,
        998,
        768,
        1,
        675,
        554,
        360,
        81,
        707,
        3,
        166,
        113,
        759,
        534,
        592,
        814,
        863,
        159,
        425,
        938,
        252,
        59,
        909,
        690,
        66,
        84,
        830,
        133,
        889,
        796,
        572,
        919,
        464,
        825,
        506,
        896,
        629,
        106,
        772,
        217,
        189,
        522,
        666,
        471,
        117,
        617,
        321,
        163,
        620,
        956,
        702,
        979,
        930,
        269,
        719,
        664,
        745,
        870,
        958,
        705,
        129,
        372,
        582,
        299,
        292,
        466,
        209,
        114,
        158,
        717,
        104,
        257,
        545,
        271,
        511,
        76,
        646,
        487,
        238,
        179,
        45,
        391,
        491,
        118,
        441,
        450,
        520,
        368,
        427,
        751,
        362,
        553,
        543,
        214,
        910,
        539,
        580,
        955,
        404,
        280,
        157,
        923,
        565,
        953,
        460,
        248,
        907,
        490,
        791,
        786,
        761,
        683,
        212,
        97,
        512,
        284,
        346,
        544,
        410,
        841,
        526,
        221,
        901,
        99,
        303,
        363,
        548,
        552,
        278,
        28,
        247,
        692,
        609,
        255,
        944,
        631,
        120,
        721,
        662,
        949,
        762,
        968,
        382,
        203,
        16,
        147,
        925,
        779,
        686,
        976,
        963,
        41,
        839,
        932,
        625,
        23,
        472,
        532,
        915,
        613,
        162,
        267,
        193,
        519,
        996,
        885,
        773,
        433,
        800,
        435,
        538,
        757,
        263,
        670,
        689,
        798,
        509,
        396,
        964,
        549,
        231,
        576,
        748,
        881,
        489,
        929,
        803,
        314,
        14,
        259,
        88,
        871,
        134,
        864,
        635,
        65,
        898,
        446,
        364,
        793,
        720,
        502,
        90,
        895,
        920,
        477,
        579,
        356,
        400,
        711,
        685,
        144,
        94,
        585,
        649,
        273,
        405,
        156,
        58,
        627,
        95,
        143,
        806,
        708,
        383,
        434,
        245,
        785,
        241,
        56,
        18,
        501,
        514,
        275,
        165,
        876,
        567,
        34,
        100,
        323,
        200,
        966,
        322,
        457,
        224,
        962,
        289,
        718,
        232,
        986,
        51,
        250,
        10,
        832,
        151,
        623,
        908,
        957,
        483,
        167,
        503,
        142,
        484,
        54,
        417,
        697,
        628,
        654,
        983,
        385,
        571,
        836,
        781,
        48,
        594,
        713,
        160,
        135,
        810,
        350,
        475,
        352,
        264,
        262,
        763,
        182,
        17,
        857,
        458,
        63,
        202,
        77,
        437,
        469,
        313,
        732,
        660,
        395,
        493,
        730,
        712,
        215,
        883,
        122,
        788,
        73,
        7,
        496,
        663,
        783,
        696,
        107,
        8,
        651,
        316,
        835,
        293,
        669,
        485,
        345,
        862,
        710,
        588,
        53,
        125,
        569,
        758,
        15,
        306,
        421,
        440,
        44,
        736,
        191,
        341,
        497,
        741,
        455,
        173,
        93,
        973,
        164,
        130,
        700,
        727,
        873,
        855,
        914,
        688,
        749,
        521,
        847,
        865,
        169,
        36,
        376,
        126,
        276,
        888,
        537,
        756,
        716,
        62,
        767,
        829,
        591,
        821,
        715,
        211,
        765,
        402,
        11,
        339,
        226,
        367,
        704,
        494,
        240,
        137,
        533,
        394,
        903,
        542,
        207,
        747,
        254,
        287,
        656,
        330,
        681,
        492,
        816,
        977,
        183,
        641,
        828,
        840,
        242,
        600,
        740,
        139,
        438,
        657,
        347,
        815,
        194,
        950,
        822,
        69,
        354,
        266,
        461,
        618,
        980,
        831,
        599,
        638,
        926,
        300,
        513,
        227
    ],
    "Nb of functions evaluations": 400020,
    "Computational time in seconds": 6741.160144329071,
    "Stopping criterion in evaluations": 400000
}